# Crystalline silicon : computation of the total energy
#

#Optimization of the lattice parameters

#optcell 1
#ionmov  2
#ntime  10
#dilatmx 1.05
#ecutsm  0.5


ndtset 2

#Dataset 1 : usual self-consistent calculation
kptopt1 1          # Option for the automatic generation of k points,
                   # taking into account the symmetry
nshiftk1 1
shiftk1  0.0 0.0 0.5  # These shifts will be the same for all grids

ngkpt1  4 4 4  
prtden1  1         # Print the density, for use by dataset 2
toldfe1  1.0d-6    # This value is way too large for most realistic studies of materials


#Dataset 2 : the band structure
iscf2    -2
getden2  -1
kptopt2  -3
nband2   8
ndivk2   86 50 100      # 10, 12 and 17 divisions of the 3 segments, delimited
                       # by 4 points.
kptbounds2  0.0  0.0  0.0 # Gamma point
            1/2  0.0  0.0 # M point
            1/3  1/3  0.0 # K point
            0.0  0.0  0.0 # Gamma point in another cell.
tolwfr2  1.0d-12
enunit2  1             # Will output the eigenenergies in eV


#Definition of the unit cell
acell 4.6394279353E+00  4.6394279353E+00  1.8601215051E+01 Bohr      # This is equivalent to   10.18 10.18 10.18
rprim  1.0   0.0        0.0                           # In lessons 1 and 2, these primitive vectors 
       -0.5  0.86602540378  0.0                           # (to be scaled by acell) were 1 0 0  0 1 0  0 0 1 
       0.0   0.0        1.0                           # that is, the default.

#Definition of the atom types
ntypat 1          # There is only one type of atom
znucl 6          # The keyword "znucl" refers to the atomic number of the 
                  # possible type(s) of atom. The pseudopotential(s) 
                  # mentioned in the "files" file must correspond
                  # to the type(s) of atom. Here, the only type is Silicon.
                         

#Definition of the atoms
natom 2           # There are two atoms
typat 1 1         # They both are of type 1, that is, Silicon.
xred              # This keyword indicate that the location of the atoms
                  # will follow, one triplet of number for each atom
   0.0  0.0  0.0  # Triplet giving the REDUCED coordinate of atom 1.
   2/3  1/3  0.0  # Triplet giving the REDUCED coordinate of atom 2.
                  # Note the use of fractions (remember the limited 
                  # interpreter capabilities of ABINIT)

#Definition of the planewave basis set
#ndtset 10
#ecut:  7.0 ecut+ 2.0         # Maximal kinetic energy cut-off, in Hartree
ecut 17

                  

#Definition of the SCF procedure
nstep 10          # Maximal number of SCF cycles
diemac 12.0       # Although this is not mandatory, it is worth to
                  # precondition the SCF cycle. The model dielectric
                  # function used as the standard preconditioner
                  # is described in the "dielng" input variable section.
                  # Here, we follow the prescription for bulk silicon.

## After modifying the following section, one might need to regenerate the pickle database with runtests.py -r
#%%<BEGIN TEST_INFO>
#%% [setup]
#%% executable = abinit
#%% [files]
#%% files_to_test = 
#%%   tbase3_1.out, tolnlines=  0, tolabs=  0.000e+00, tolrel=  0.000e+00
#%% psp_files =  14si.pspnc
#%% [paral_info]
#%% max_nprocs = 4
#%% [extra_info]
#%% authors = Unknown
#%% keywords = 
#%% description = Crystalline silicon: computation of the total energy
#%%<END TEST_INFO>

