# GOAL: Calculate the band structure by doing a SCF loop first and then moving in the brillouine zone
#       include the effect of spin polarization (magnetization)


ndtset 2

#Dataset 1 : usual self-consistent calculation
kptopt1 1          # Option for the automatic generation of k points,
                   # taking into account the symmetry
nshiftk1 1
shiftk1  0.0 0.0 0.5  # These shifts will be the same for all grids

ngkpt1  8 8 1  
prtden1  1         # Print the density, for use by dataset 2
toldfe1  1.0d-6    # This value is way too large for most realistic studies of materials


#Dataset 2 : the band structure
iscf2    -2
getden2  -1
kptopt2  -3
nband2   16
ndivk2   17 10 20      # divisions of the segments, delimited by the points indicated below.

kptbounds2  0.0  0.0  0.0 # Gamma point
            1/2  0.0  0.0 # M point
            1/3  1/3  0.0 # K point
            0.0  0.0  0.0 # Gamma point in another cell.
tolwfr2  1.0d-12
enunit2  1             # Will output the eigenenergies in eV


###############################################################################################

#Definition of the unit cell
acell      6.0564706910E+00  6.0564706910E+00  3.8453782165E+01 Bohr
rprim  1.0   0.0        0.0                           # In lessons 1 and 2, these primitive vectors 
       -0.5  0.86602540378  0.0                           # (to be scaled by acell) were 1 0 0  0 1 0  0 0 1 
       0.0   0.0        1.0                           # that is, the default.

#Definition of the atom types
ntypat 2          # There is only one type of atom
znucl 42  16      # The keyword "znucl" refers to the atomic number of the 
                  # possible type(s) of atom. The pseudopotential(s) 
                  # mentioned in the "files" file must correspond
                  # to the type(s) of atom. Here, the only type is Silicon.

#Definition of the atoms
natom 3           # There are two atoms
typat 1 2 2       # They both are of type 1, that is, Silicon.
xred      5.0663501458E-28  2.5331750729E-28  8.0884429974E-21
         6.6666666667E-01  3.3333333333E-01  7.9078110549E-02
         6.6666666667E-01  3.3333333333E-01 -7.9078110549E-02

#########################################
# spin properties

nspinor 1
nsppol 2
nspden 2

# could be 3, 4, 5 ,6, 7 but not 2
occopt 7

spinat
    0 0 1.0
    0 0 0.0
    0 0 -1.0

#########################################
#Definition of the planewave basis set
ecut  17

                  

#Definition of the SCF procedure
nstep 10          # Maximal number of SCF cycles
diemac 12.0       # Although this is not mandatory, it is worth to
                  # precondition the SCF cycle. The model dielectric
                  # function used as the standard preconditioner
                  # is described in the "dielng" input variable section.
                  # Here, we follow the prescription for bulk silicon.

## After modifying the following section, one might need to regenerate the pickle database with runtests.py -r
#%%<BEGIN TEST_INFO>
#%% [setup]
#%% executable = abinit
#%% [files]
#%% files_to_test = 
#%%   tbase3_1.out, tolnlines=  0, tolabs=  0.000e+00, tolrel=  0.000e+00
#%% psp_files =  14si.pspnc
#%% [paral_info]
#%% max_nprocs = 4
#%% [extra_info]
#%% authors = Unknown
#%% keywords = 
#%% description = Crystalline silicon: computation of the total energy
#%%<END TEST_INFO>

