# GOAL: Find a good value for k-grid

#usual self-consistent calculation
kptopt 1          # Option for the automatic generation of k points,
                   # taking into account the symmetry
nshiftk 1
shiftk  0.0 0.0 0.5  # These shifts will be the same for all grids

ndtset 3

ngkpt1  2 2 2  
ngkpt2  4 4 4  
ngkpt3  6 6 6   
prtden  1         # Print the density, for use by dataset 2
toldfe  1.0d-6    # This value is way too large for most realistic studies of materials

#Definition of the unit cell
acell 6.0204074108E+00  6.0204074108E+00  1.9112404479E+01 Bohr      # This is equivalent to   10.18 10.18 10.18
rprim  1.0   0.0        0.0                           # In lessons 1 and 2, these primitive vectors 
       -0.5  0.86602540378  0.0                           # (to be scaled by acell) were 1 0 0  0 1 0  0 0 1 
       0.0   0.0        1.0                           # that is, the default.

#Definition of the atom types
ntypat 2          # There is only one type of atom
znucl 42  16      # The keyword "znucl" refers to the atomic number of the 
                  # possible type(s) of atom. The pseudopotential(s) 
                  # mentioned in the "files" file must correspond
                  # to the type(s) of atom. Here, the only type is Silicon.
                         

#Definition of the atoms
natom 3           # There are two atoms
typat 1 2 2       # They both are of type 1, that is, Silicon.
xred              # This keyword indicate that the location of the atoms
                  # will follow, one triplet of number for each atom
   0.0  0.0  0.0  # Triplet giving the REDUCED coordinate of atom 1.
   2/3  1/3  1.6298478192E-01   # Triplet giving the REDUCED coordinate of atom 2.
   2/3  1/3  -1.6298478192E-01   # Triplet giving the REDUCED coordinate of atom 3.


#Definition of the planewave basis set
ecut  17

                  

#Definition of the SCF procedure
nstep 10          # Maximal number of SCF cycles
diemac 12.0       # Although this is not mandatory, it is worth to
                  # precondition the SCF cycle. The model dielectric
                  # function used as the standard preconditioner
                  # is described in the "dielng" input variable section.
                  # Here, we follow the prescription for bulk silicon.

## After modifying the following section, one might need to regenerate the pickle database with runtests.py -r
#%%<BEGIN TEST_INFO>
#%% [setup]
#%% executable = abinit
#%% [files]
#%% files_to_test = 
#%%   tbase3_1.out, tolnlines=  0, tolabs=  0.000e+00, tolrel=  0.000e+00
#%% psp_files =  14si.pspnc
#%% [paral_info]
#%% max_nprocs = 4
#%% [extra_info]
#%% authors = Unknown
#%% keywords = 
#%% description = Crystalline silicon: computation of the total energy
#%%<END TEST_INFO>

